50
99.0
0 49 3.56 3.29
1 48 2.96 3.12
2 47 2.9 3.19
3 46 3.45 3.08
4 45 2.88 2.93
5 44 2.8 2.79
6 43 2.96 3.3
7 42 2.72 2.99
8 41 2.95 3.33
9 40 3.49 3.08
10 39 2.78 3.19
11 38 3.35 3.15
12 37 3.55 2.96
13 36 2.93 3.23
14 35 3.28 3.13
15 34 3.28 2.52
16 33 3.07 2.82
17 32 2.9 2.65
18 31 3.36 2.44
19 30 2.54 2.93
20 29 3.12 3.06
21 28 2.51 3.46
22 27 3.75 3.72
23 26 3.09 3.08
24 25 3.13 3.25
25 24 3.45 2.81
26 23 3.41 2.87
27 22 2.62 3.28
28 21 2.76 3.47
29 20 3.11 2.83
30 19 2.94 3.07
31 18 3.19 2.99
32 17 2.2 2.84
33 16 2.93 2.63
34 15 2.95 3.23
35 14 3.02 2.8
36 13 1.77 2.92
37 12 3.0 3.64
38 11 3.42 2.27
39 10 2.75 3.09
40 9 1.92 2.69
41 8 3.03 2.16
42 7 4.02 3.68
43 6 2.88 2.5
44 5 4.14 2.96
45 4 1.38 3.22
46 3 2.39 3.56
47 2 4.75 2.41
48 1 3.88 1.68
